p cnf 22 44
a 17 13 0
e 1 2 3 4 5 6 7 8 9 10 11 12 14 15 16 18 19 20 21 22 0
-3 1 0
-3 -2 0
-1 2 3 0
4 -5 -6 0
-4 5 -6 0
4 5 6 0
-4 -5 6 0
-9 -7 0
-9 8 0
7 -8 9 0
10 6 0
10 9 0
-6 -9 -10 0
-11 3 0
-11 -10 0
-3 10 11 0
7 12 -13 0
-7 -12 -13 0
7 -12 13 0
-7 12 13 0
14 12 0
14 -13 0
-12 13 -14 0
11 -14 -15 0
-11 14 -15 0
11 14 15 0
-11 -14 15 0
17 -16 0
17 12 0
16 -12 -17 0
20 18 0
20 19 0
-18 -19 -20 0
21 17 0
21 20 0
-17 -20 -21 0
22 15 0
22 -21 0
-15 21 -22 0
-8 -21 -15 -16 0
-1 21 0
-4 -8 19 -20 9 -18 11 0
-19 -4 -22 0
22 0
